09-routing/solutions/XSH-n20-k4-25.opt.sol
Route #1: 3 13 6 4 2 20
Route #2: 16 9 5 8
Route #3: 7 15 18 14 17
Route #4: 1 19 11 10 12
Cost 462
